(set-info :origin "SVCOMP13 benchmarks generated by Arie Gurfinkel")
(set-info :status sat)
(set-logic HORN)
(declare-fun cp-rel-entry () Bool)
(declare-fun cp-rel-bb1.i.i (Real Real) Bool)
(declare-fun cp-rel-bb1.i.i26.i.i () Bool)
(assert |cp-rel-entry|)
(assert (forall ((?A Real) (?B Real) (?C Bool) )(let (($x437310 (and |cp-rel-entry| (<= ?B 1.0) (>= ?A 0.0) (<= ?A 0.0) (= ?C true) (>= ?B 1.0))))
(=> $x437310 (|cp-rel-bb1.i.i| ?A ?B))))
)
(assert (forall ((?A Real) (?B Real) (?C Real) (?D Real) (?E Bool) (?F Bool) (?G Bool) (?H Bool) (?I Bool) (?J Bool) (?K Real) (?L Real) (?M Bool) (?N Bool) (?O Bool) (?P Bool) (?Q Bool) (?R Bool) (?S Bool) (?T Bool) (?U Bool) (?V Bool) (?W Bool) (?X Real) (?Y Real) (?Z Real) (?A1 Bool) (?B1 Real) (?C1 Bool) (?D1 Bool) (?E1 Real) (?F1 Bool) (?G1 Real) (?H1 Bool) (?I1 Bool) (?J1 Real) (?K1 Bool) (?L1 Bool) )(let (($x533432 (|cp-rel-bb1.i.i| ?C ?D)))
(let (($x624492 (= ?D1 (or ?L1 ?K1))))
(let (($x58780 (or (not ?E) (and ?F ?G (not ?H)))))
(let (($x350953 (or (not ?E) ?G)))
(let (($x532537 (not ?I)))
(let (($x561004 (or $x532537 (and ?E ?J (<= ?K ?L) (>= ?K ?L)) (and ?F ?M ?H (<= ?K ?B) (>= ?K ?B)))))
(let (($x927514 (or $x532537 (and ?J (not ?M)) (and ?M (not ?J)))))
(let (($x432702 (or (not ?N) (and ?I ?O ?P))))
(let (($x88284 (or (not ?N) ?O)))
(let (($x144090 (or (not ?Q) (and ?I ?R (not ?P)))))
(let (($x418050 (or (not ?Q) ?R)))
(let (($x631031 (or (not ?S) (and ?Q ?T ?U))))
(let (($x345228 (or (not ?S) ?T)))
(let (($x405904 (>= ?X ?B1)))
(let (($x335175 (<= ?X ?B1)))
(let (($x850345 (and ?Q ?C1 (not ?U) $x335175 $x405904 (<= ?Y 0.0) (>= ?Y 0.0))))
(let (($x865766 (and ?N ?W (<= ?X ?K) (>= ?X ?K) (<= ?Y ?Z) (>= ?Y ?Z))))
(let (($x582988 (not ?V)))
(let (($x833166 (or $x582988 $x865766 (and ?S ?A1 $x335175 $x405904 (<= ?Y ?A) (>= ?Y ?A)) $x850345)))
(let (($x464251 (or $x582988 (and ?W (not ?A1) (not ?C1)) (and ?A1 (not ?W) (not ?C1)) (and ?C1 (not ?W) (not ?A1)))))
(let (($x165161 (= ?V true)))
(let (($x390587 (= ?D1 true)))
(let (($x286713 (= ?H (= ?E1 0.0))))
(let (($x689057 (= ?G1 (ite ?F1 1.0 0.0))))
(let (($x453296 (= ?H1 (not (<= ?K 1.0)))))
(let (($x99153 (= ?I1 (not (<= ?K 0.0)))))
(let (($x190833 (= ?J1 (+ (~ 1.0) ?K))))
(let (($x693931 (= ?B1 (ite ?I1 ?J1 ?K))))
(let (($x317853 (= ?U (= ?B1 0.0))))
(let (($x674016 (= ?K1 (not (= ?X 0.0)))))
(let (($x312664 (= ?L1 (= ?Y 0.0))))
(let (($x607945 (and (|cp-rel-bb1.i.i| ?A ?B) $x312664 $x674016 $x317853 $x693931 $x190833 $x99153 (= ?Z (ite ?H1 1.0 ?A)) $x453296 (= ?P (= ?A 0.0)) (= ?L (+ ?G1 ?B)) $x689057 (= ?F1 (not (<= 2.0 ?B))) $x286713 (>= ?D ?X) (<= ?D ?X) (>= ?C ?Y) (<= ?C ?Y) $x390587 $x165161 $x464251 $x833166 $x345228 $x631031 $x418050 $x144090 $x88284 $x432702 $x927514 $x561004 $x350953 $x58780 $x624492)))
(=> $x607945 $x533432))))))))))))))))))))))))))))))))))
)
(assert (forall ((?A Real) (?B Real) (?C Bool) (?D Bool) (?E Bool) (?F Bool) (?G Bool) (?H Bool) (?I Real) (?J Real) (?K Bool) (?L Bool) (?M Bool) (?N Bool) (?O Bool) (?P Bool) (?Q Bool) (?R Bool) (?S Bool) (?T Bool) (?U Bool) (?V Real) (?W Real) (?X Real) (?Y Bool) (?Z Real) (?A1 Bool) (?B1 Bool) (?C1 Real) (?D1 Bool) (?E1 Real) (?F1 Bool) (?G1 Bool) (?H1 Real) (?I1 Bool) (?J1 Bool) )(let (($x624492 (= ?B1 (or ?J1 ?I1))))
(let (($x58780 (or (not ?C) (and ?D ?E (not ?F)))))
(let (($x350953 (or (not ?C) ?E)))
(let (($x532537 (not ?G)))
(let (($x194825 (or $x532537 (and ?C ?H (<= ?I ?J) (>= ?I ?J)) (and ?D ?K ?F (<= ?I ?B) (>= ?I ?B)))))
(let (($x927514 (or $x532537 (and ?H (not ?K)) (and ?K (not ?H)))))
(let (($x432702 (or (not ?L) (and ?G ?M ?N))))
(let (($x88284 (or (not ?L) ?M)))
(let (($x144090 (or (not ?O) (and ?G ?P (not ?N)))))
(let (($x418050 (or (not ?O) ?P)))
(let (($x631031 (or (not ?Q) (and ?O ?R ?S))))
(let (($x345228 (or (not ?Q) ?R)))
(let (($x405904 (>= ?V ?Z)))
(let (($x335175 (<= ?V ?Z)))
(let (($x850345 (and ?O ?A1 (not ?S) $x335175 $x405904 (<= ?W 0.0) (>= ?W 0.0))))
(let (($x865766 (and ?L ?U (<= ?V ?I) (>= ?V ?I) (<= ?W ?X) (>= ?W ?X))))
(let (($x582988 (not ?T)))
(let (($x367467 (or $x582988 $x865766 (and ?Q ?Y $x335175 $x405904 (<= ?W ?A) (>= ?W ?A)) $x850345)))
(let (($x464251 (or $x582988 (and ?U (not ?Y) (not ?A1)) (and ?Y (not ?U) (not ?A1)) (and ?A1 (not ?U) (not ?Y)))))
(let (($x165161 (= ?T true)))
(let (($x286713 (= ?F (= ?C1 0.0))))
(let (($x689057 (= ?E1 (ite ?D1 1.0 0.0))))
(let (($x453296 (= ?F1 (not (<= ?I 1.0)))))
(let (($x99153 (= ?G1 (not (<= ?I 0.0)))))
(let (($x190833 (= ?H1 (+ (~ 1.0) ?I))))
(let (($x693931 (= ?Z (ite ?G1 ?H1 ?I))))
(let (($x317853 (= ?S (= ?Z 0.0))))
(let (($x674016 (= ?I1 (not (= ?V 0.0)))))
(let (($x312664 (= ?J1 (= ?W 0.0))))
(let (($x533432 (|cp-rel-bb1.i.i| ?A ?B)))
(let (($x206450 (and $x533432 $x312664 $x674016 $x317853 $x693931 $x190833 $x99153 (= ?X (ite ?F1 1.0 ?A)) $x453296 (= ?N (= ?A 0.0)) (= ?J (+ ?E1 ?B)) $x689057 (= ?D1 (not (<= 2.0 ?B))) $x286713 (not (= ?B1 true)) $x165161 $x464251 $x367467 $x345228 $x631031 $x418050 $x144090 $x88284 $x432702 $x927514 $x194825 $x350953 $x58780 $x624492)))
(=> $x206450 |cp-rel-bb1.i.i26.i.i|)))))))))))))))))))))))))))))))))
)
(assert (not cp-rel-bb1.i.i26.i.i))
(check-sat)
